c Generated map
c Size: 10 * 10, weights in range: 1 to 10, walls: False, with ratio 0.0
c dim 2 of 6
c
p sp 100 180
c graph contains 100 nodes and 180 arcs
c
a 1 11 4
a 11 1 4
a 1 2 4
a 2 1 4
a 2 12 10
a 12 2 10
a 2 3 5
a 3 2 5
a 3 13 9
a 13 3 9
a 3 4 1
a 4 3 1
a 4 14 8
a 14 4 8
a 4 5 7
a 5 4 7
a 5 15 9
a 15 5 9
a 5 6 6
a 6 5 6
a 6 16 6
a 16 6 6
a 6 7 5
a 7 6 5
a 7 17 9
a 17 7 9
a 7 8 2
a 8 7 2
a 8 18 5
a 18 8 5
a 8 9 1
a 9 8 1
a 9 19 9
a 19 9 9
a 9 10 2
a 10 9 2
a 10 20 4
a 20 10 4
a 11 21 2
a 21 11 2
a 11 12 3
a 12 11 3
a 12 22 7
a 22 12 7
a 12 13 8
a 13 12 8
a 13 23 10
a 23 13 10
a 13 14 8
a 14 13 8
a 14 24 6
a 24 14 6
a 14 15 7
a 15 14 7
a 15 25 5
a 25 15 5
a 15 16 6
a 16 15 6
a 16 26 5
a 26 16 5
a 16 17 9
a 17 16 9
a 17 27 8
a 27 17 8
a 17 18 4
a 18 17 4
a 18 28 1
a 28 18 1
a 18 19 9
a 19 18 9
a 19 29 5
a 29 19 5
a 19 20 9
a 20 19 9
a 20 30 2
a 30 20 2
a 21 31 9
a 31 21 9
a 21 22 10
a 22 21 10
a 22 32 10
a 32 22 10
a 22 23 7
a 23 22 7
a 23 33 1
a 33 23 1
a 23 24 1
a 24 23 1
a 24 34 6
a 34 24 6
a 24 25 6
a 25 24 6
a 25 35 2
a 35 25 2
a 25 26 9
a 26 25 9
a 26 36 7
a 36 26 7
a 26 27 10
a 27 26 10
a 27 37 2
a 37 27 2
a 27 28 4
a 28 27 4
a 28 38 8
a 38 28 8
a 28 29 2
a 29 28 2
a 29 39 5
a 39 29 5
a 29 30 7
a 30 29 7
a 30 40 6
a 40 30 6
a 31 41 1
a 41 31 1
a 31 32 7
a 32 31 7
a 32 42 3
a 42 32 3
a 32 33 7
a 33 32 7
a 33 43 4
a 43 33 4
a 33 34 8
a 34 33 8
a 34 44 8
a 44 34 8
a 34 35 4
a 35 34 4
a 35 45 1
a 45 35 1
a 35 36 6
a 36 35 6
a 36 46 10
a 46 36 10
a 36 37 10
a 37 36 10
a 37 47 1
a 47 37 1
a 37 38 1
a 38 37 1
a 38 48 1
a 48 38 1
a 38 39 4
a 39 38 4
a 39 49 5
a 49 39 5
a 39 40 7
a 40 39 7
a 40 50 10
a 50 40 10
a 41 51 7
a 51 41 7
a 41 42 2
a 42 41 2
a 42 52 7
a 52 42 7
a 42 43 9
a 43 42 9
a 43 53 10
a 53 43 10
a 43 44 8
a 44 43 8
a 44 54 8
a 54 44 8
a 44 45 4
a 45 44 4
a 45 55 1
a 55 45 1
a 45 46 3
a 46 45 3
a 46 56 7
a 56 46 7
a 46 47 4
a 47 46 4
a 47 57 9
a 57 47 9
a 47 48 1
a 48 47 1
a 48 58 5
a 58 48 5
a 48 49 1
a 49 48 1
a 49 59 3
a 59 49 3
a 49 50 5
a 50 49 5
a 50 60 8
a 60 50 8
a 51 61 3
a 61 51 3
a 51 52 7
a 52 51 7
a 52 62 2
a 62 52 2
a 52 53 8
a 53 52 8
a 53 63 6
a 63 53 6
a 53 54 4
a 54 53 4
a 54 64 7
a 64 54 7
a 54 55 6
a 55 54 6
a 55 65 2
a 65 55 2
a 55 56 7
a 56 55 7
a 56 66 8
a 66 56 8
a 56 57 4
a 57 56 4
a 57 67 3
a 67 57 3
a 57 58 10
a 58 57 10
a 58 68 7
a 68 58 7
a 58 59 4
a 59 58 4
a 59 69 3
a 69 59 3
a 59 60 8
a 60 59 8
a 60 70 5
a 70 60 5
a 61 71 9
a 71 61 9
a 61 62 9
a 62 61 9
a 62 72 3
a 72 62 3
a 62 63 10
a 63 62 10
a 63 73 7
a 73 63 7
a 63 64 7
a 64 63 7
a 64 74 6
a 74 64 6
a 64 65 5
a 65 64 5
a 65 75 5
a 75 65 5
a 65 66 5
a 66 65 5
a 66 76 9
a 76 66 9
a 66 67 9
a 67 66 9
a 67 77 6
a 77 67 6
a 67 68 1
a 68 67 1
a 68 78 7
a 78 68 7
a 68 69 3
a 69 68 3
a 69 79 9
a 79 69 9
a 69 70 1
a 70 69 1
a 70 80 1
a 80 70 1
a 71 81 9
a 81 71 9
a 71 72 3
a 72 71 3
a 72 82 7
a 82 72 7
a 72 73 8
a 73 72 8
a 73 83 6
a 83 73 6
a 73 74 5
a 74 73 5
a 74 84 7
a 84 74 7
a 74 75 10
a 75 74 10
a 75 85 5
a 85 75 5
a 75 76 7
a 76 75 7
a 76 86 1
a 86 76 1
a 76 77 6
a 77 76 6
a 77 87 5
a 87 77 5
a 77 78 6
a 78 77 6
a 78 88 4
a 88 78 4
a 78 79 9
a 79 78 9
a 79 89 5
a 89 79 5
a 79 80 3
a 80 79 3
a 80 90 8
a 90 80 8
a 81 91 2
a 91 81 2
a 81 82 3
a 82 81 3
a 82 92 6
a 92 82 6
a 82 83 1
a 83 82 1
a 83 93 4
a 93 83 4
a 83 84 8
a 84 83 8
a 84 94 4
a 94 84 4
a 84 85 4
a 85 84 4
a 85 95 2
a 95 85 2
a 85 86 9
a 86 85 9
a 86 96 2
a 96 86 2
a 86 87 1
a 87 86 1
a 87 97 9
a 97 87 9
a 87 88 4
a 88 87 4
a 88 98 10
a 98 88 10
a 88 89 4
a 89 88 4
a 89 99 1
a 99 89 1
a 89 90 3
a 90 89 3
a 90 100 6
a 100 90 6
a 91 92 10
a 92 91 10
a 92 93 2
a 93 92 2
a 93 94 2
a 94 93 2
a 94 95 5
a 95 94 5
a 95 96 3
a 96 95 3
a 96 97 9
a 97 96 9
a 97 98 5
a 98 97 5
a 98 99 10
a 99 98 10
a 99 100 4
a 100 99 4
